50
1 0 15
2 0 12
2 1 11
3 0 35
3 1 13
3 2 22
4 0 6
4 1 32
4 2 5
4 3 5
5 0 6
5 1 40
5 2 14
5 3 23
5 4 33
6 0 23
6 1 15
6 2 3
6 3 15
6 4 9
6 5 6
7 0 17
7 1 26
7 2 19
7 3 17
7 4 25
7 5 12
7 6 34
8 0 38
8 1 37
8 2 37
8 3 19
8 4 9
8 5 38
8 6 23
8 7 18
9 0 16
9 1 7
9 2 24
9 3 29
9 4 16
9 5 23
9 6 26
9 7 3
9 8 12
10 0 33
10 1 36
10 2 4
10 3 35
10 4 28
10 5 3
10 6 26
10 7 22
10 8 3
10 9 8
11 0 13
11 1 9
11 2 21
11 3 14
11 4 11
11 5 24
11 6 5
11 7 17
11 8 37
11 9 15
11 10 18
12 0 33
12 1 28
12 2 3
12 3 21
12 4 34
12 5 33
12 6 7
12 7 10
12 8 34
12 9 24
12 10 27
12 11 34
13 0 20
13 1 38
13 2 7
13 3 36
13 4 1
13 5 4
13 6 32
13 7 14
13 8 30
13 9 16
13 10 17
13 11 24
13 12 35
14 0 4
14 1 36
14 2 3
14 3 29
14 4 18
14 5 15
14 6 20
14 7 19
14 8 36
14 9 30
14 10 22
14 11 30
14 12 12
14 13 37
15 0 15
15 1 22
15 2 18
15 3 24
15 4 13
15 5 28
15 6 30
15 7 18
15 8 6
15 9 19
15 10 2
15 11 40
15 12 2
15 13 16
15 14 15
16 0 34
16 1 20
16 2 35
16 3 28
16 4 26
16 5 3
16 6 32
16 7 27
16 8 2
16 9 2
16 10 36
16 11 32
16 12 35
16 13 40
16 14 15
16 15 35
17 0 39
17 1 28
17 2 14
17 3 19
17 4 9
17 5 20
17 6 7
17 7 27
17 8 10
17 9 28
17 10 16
17 11 18
17 12 19
17 13 5
17 14 4
17 15 19
17 16 19
18 0 36
18 1 38
18 2 12
18 3 39
18 4 20
18 5 38
18 6 29
18 7 36
18 8 15
18 9 39
18 10 16
18 11 12
18 12 15
18 13 21
18 14 27
18 15 38
18 16 20
18 17 8
19 0 11
19 1 9
19 2 2
19 3 28
19 4 9
19 5 6
19 6 21
19 7 32
19 8 17
19 9 6
19 10 33
19 11 12
19 12 12
19 13 28
19 14 14
19 15 25
19 16 35
19 17 26
19 18 26
20 0 8
20 1 5
20 2 22
20 3 34
20 4 10
20 5 1
20 6 22
20 7 33
20 8 3
20 9 11
20 10 8
20 11 17
20 12 22
20 13 7
20 14 4
20 15 3
20 16 16
20 17 15
20 18 38
20 19 7
21 0 8
21 1 15
21 2 36
21 3 17
21 4 7
21 5 30
21 6 35
21 7 12
21 8 30
21 9 4
21 10 23
21 11 22
21 12 27
21 13 26
21 14 5
21 15 38
21 16 21
21 17 5
21 18 16
21 19 1
21 20 15
22 0 16
22 1 6
22 2 16
22 3 38
22 4 6
22 5 27
22 6 36
22 7 12
22 8 10
22 9 8
22 10 30
22 11 39
22 12 31
22 13 38
22 14 10
22 15 3
22 16 38
22 17 26
22 18 37
22 19 37
22 20 8
22 21 4
23 0 3
23 1 6
23 2 11
23 3 27
23 4 5
23 5 7
23 6 6
23 7 10
23 8 5
23 9 26
23 10 1
23 11 30
23 12 21
23 13 16
23 14 27
23 15 19
23 16 1
23 17 28
23 18 5
23 19 21
23 20 29
23 21 34
23 22 5
24 0 15
24 1 19
24 2 40
24 3 7
24 4 15
24 5 39
24 6 35
24 7 36
24 8 19
24 9 26
24 10 10
24 11 4
24 12 22
24 13 25
24 14 22
24 15 24
24 16 16
24 17 24
24 18 19
24 19 8
24 20 37
24 21 3
24 22 31
24 23 29
25 0 3
25 1 3
25 2 18
25 3 14
25 4 4
25 5 37
25 6 10
25 7 32
25 8 17
25 9 6
25 10 38
25 11 27
25 12 23
25 13 35
25 14 37
25 15 13
25 16 9
25 17 10
25 18 39
25 19 6
25 20 35
25 21 22
25 22 19
25 23 31
25 24 26
26 0 10
26 1 5
26 2 34
26 3 33
26 4 9
26 5 6
26 6 21
26 7 24
26 8 26
26 9 22
26 10 8
26 11 2
26 12 16
26 13 26
26 14 2
26 15 38
26 16 40
26 17 11
26 18 26
26 19 10
26 20 16
26 21 12
26 22 36
26 23 26
26 24 14
26 25 6
27 0 18
27 1 33
27 2 26
27 3 21
27 4 31
27 5 21
27 6 40
27 7 39
27 8 38
27 9 17
27 10 5
27 11 13
27 12 25
27 13 2
27 14 11
27 15 18
27 16 35
27 17 33
27 18 15
27 19 4
27 20 32
27 21 34
27 22 16
27 23 9
27 24 6
27 25 15
27 26 30
28 0 28
28 1 8
28 2 5
28 3 29
28 4 27
28 5 31
28 6 7
28 7 12
28 8 21
28 9 14
28 10 33
28 11 35
28 12 36
28 13 4
28 14 33
28 15 29
28 16 5
28 17 27
28 18 31
28 19 9
28 20 19
28 21 10
28 22 23
28 23 2
28 24 23
28 25 26
28 26 15
28 27 10
29 0 10
29 1 39
29 2 10
29 3 15
29 4 19
29 5 38
29 6 21
29 7 17
29 8 5
29 9 28
29 10 26
29 11 14
29 12 38
29 13 36
29 14 39
29 15 36
29 16 31
29 17 29
29 18 26
29 19 29
29 20 36
29 21 18
29 22 33
29 23 21
29 24 7
29 25 37
29 26 26
29 27 26
29 28 14
30 0 27
30 1 27
30 2 35
30 3 16
30 4 23
30 5 37
30 6 36
30 7 10
30 8 37
30 9 27
30 10 26
30 11 40
30 12 13
30 13 12
30 14 40
30 15 10
30 16 10
30 17 14
30 18 37
30 19 30
30 20 32
30 21 18
30 22 16
30 23 33
30 24 26
30 25 15
30 26 32
30 27 35
30 28 5
30 29 37
31 0 7
31 1 18
31 2 18
31 3 3
31 4 39
31 5 32
31 6 36
31 7 26
31 8 1
31 9 8
31 10 29
31 11 29
31 12 29
31 13 8
31 14 14
31 15 37
31 16 35
31 17 15
31 18 26
31 19 34
31 20 28
31 21 28
31 22 33
31 23 8
31 24 25
31 25 18
31 26 33
31 27 7
31 28 10
31 29 38
31 30 20
32 0 11
32 1 19
32 2 3
32 3 37
32 4 22
32 5 20
32 6 39
32 7 19
32 8 7
32 9 19
32 10 21
32 11 36
32 12 23
32 13 35
32 14 16
32 15 36
32 16 21
32 17 30
32 18 3
32 19 26
32 20 6
32 21 24
32 22 29
32 23 27
32 24 25
32 25 27
32 26 38
32 27 15
32 28 35
32 29 18
32 30 9
32 31 4
33 0 36
33 1 1
33 2 36
33 3 8
33 4 6
33 5 21
33 6 14
33 7 4
33 8 10
33 9 34
33 10 30
33 11 24
33 12 11
33 13 11
33 14 21
33 15 19
33 16 26
33 17 19
33 18 16
33 19 40
33 20 9
33 21 26
33 22 15
33 23 25
33 24 23
33 25 7
33 26 24
33 27 14
33 28 19
33 29 14
33 30 20
33 31 12
33 32 32
34 0 33
34 1 26
34 2 27
34 3 13
34 4 8
34 5 23
34 6 36
34 7 1
34 8 22
34 9 12
34 10 29
34 11 15
34 12 35
34 13 3
34 14 32
34 15 34
34 16 2
34 17 39
34 18 24
34 19 27
34 20 14
34 21 11
34 22 5
34 23 21
34 24 2
34 25 11
34 26 14
34 27 31
34 28 3
34 29 35
34 30 26
34 31 5
34 32 19
34 33 13
35 0 28
35 1 17
35 2 27
35 3 39
35 4 6
35 5 14
35 6 27
35 7 30
35 8 27
35 9 19
35 10 11
35 11 22
35 12 29
35 13 40
35 14 11
35 15 24
35 16 14
35 17 6
35 18 28
35 19 12
35 20 31
35 21 38
35 22 12
35 23 27
35 24 23
35 25 26
35 26 40
35 27 6
35 28 35
35 29 25
35 30 35
35 31 29
35 32 27
35 33 1
35 34 37
36 0 38
36 1 10
36 2 14
36 3 38
36 4 13
36 5 11
36 6 17
36 7 29
36 8 36
36 9 10
36 10 33
36 11 36
36 12 19
36 13 3
36 14 32
36 15 37
36 16 7
36 17 8
36 18 26
36 19 4
36 20 34
36 21 21
36 22 25
36 23 19
36 24 9
36 25 26
36 26 4
36 27 9
36 28 34
36 29 35
36 30 16
36 31 30
36 32 14
36 33 23
36 34 28
36 35 24
37 0 10
37 1 32
37 2 38
37 3 39
37 4 36
37 5 10
37 6 8
37 7 14
37 8 27
37 9 17
37 10 23
37 11 23
37 12 32
37 13 1
37 14 10
37 15 20
37 16 23
37 17 3
37 18 7
37 19 34
37 20 24
37 21 23
37 22 26
37 23 38
37 24 10
37 25 12
37 26 35
37 27 25
37 28 37
37 29 17
37 30 4
37 31 13
37 32 9
37 33 27
37 34 35
37 35 8
37 36 22
38 0 23
38 1 26
38 2 30
38 3 23
38 4 33
38 5 31
38 6 13
38 7 24
38 8 27
38 9 25
38 10 21
38 11 31
38 12 12
38 13 5
38 14 14
38 15 25
38 16 6
38 17 9
38 18 23
38 19 20
38 20 29
38 21 11
38 22 25
38 23 28
38 24 34
38 25 25
38 26 5
38 27 31
38 28 23
38 29 26
38 30 36
38 31 19
38 32 32
38 33 26
38 34 31
38 35 11
38 36 12
38 37 15
39 0 33
39 1 2
39 2 15
39 3 9
39 4 35
39 5 37
39 6 17
39 7 4
39 8 38
39 9 2
39 10 22
39 11 1
39 12 26
39 13 19
39 14 20
39 15 11
39 16 13
39 17 17
39 18 27
39 19 8
39 20 10
39 21 24
39 22 8
39 23 28
39 24 30
39 25 14
39 26 7
39 27 7
39 28 21
39 29 36
39 30 20
39 31 16
39 32 32
39 33 40
39 34 39
39 35 19
39 36 2
39 37 16
39 38 26
40 0 38
40 1 13
40 2 14
40 3 25
40 4 32
40 5 25
40 6 39
40 7 19
40 8 37
40 9 27
40 10 37
40 11 12
40 12 37
40 13 3
40 14 6
40 15 13
40 16 33
40 17 24
40 18 13
40 19 25
40 20 37
40 21 22
40 22 6
40 23 19
40 24 17
40 25 30
40 26 5
40 27 37
40 28 12
40 29 3
40 30 40
40 31 7
40 32 3
40 33 28
40 34 8
40 35 30
40 36 15
40 37 31
40 38 36
40 39 35
41 0 35
41 1 40
41 2 20
41 3 29
41 4 22
41 5 1
41 6 35
41 7 20
41 8 28
41 9 15
41 10 15
41 11 20
41 12 35
41 13 23
41 14 23
41 15 27
41 16 34
41 17 38
41 18 10
41 19 6
41 20 15
41 21 21
41 22 8
41 23 39
41 24 36
41 25 34
41 26 30
41 27 31
41 28 39
41 29 4
41 30 33
41 31 13
41 32 38
41 33 32
41 34 17
41 35 11
41 36 35
41 37 22
41 38 29
41 39 5
41 40 4
42 0 35
42 1 32
42 2 23
42 3 25
42 4 26
42 5 2
42 6 31
42 7 19
42 8 14
42 9 34
42 10 40
42 11 27
42 12 15
42 13 29
42 14 34
42 15 11
42 16 37
42 17 7
42 18 36
42 19 27
42 20 11
42 21 12
42 22 25
42 23 18
42 24 29
42 25 10
42 26 28
42 27 5
42 28 35
42 29 18
42 30 13
42 31 20
42 32 32
42 33 19
42 34 39
42 35 33
42 36 30
42 37 9
42 38 27
42 39 30
42 40 22
42 41 19
43 0 2
43 1 32
43 2 36
43 3 32
43 4 8
43 5 33
43 6 14
43 7 2
43 8 25
43 9 31
43 10 20
43 11 15
43 12 28
43 13 24
43 14 16
43 15 11
43 16 39
43 17 13
43 18 2
43 19 7
43 20 32
43 21 13
43 22 24
43 23 17
43 24 1
43 25 22
43 26 40
43 27 32
43 28 15
43 29 11
43 30 20
43 31 1
43 32 4
43 33 15
43 34 24
43 35 28
43 36 39
43 37 18
43 38 33
43 39 26
43 40 24
43 41 10
43 42 16
44 0 33
44 1 22
44 2 39
44 3 20
44 4 36
44 5 8
44 6 33
44 7 31
44 8 25
44 9 31
44 10 21
44 11 14
44 12 5
44 13 7
44 14 31
44 15 13
44 16 2
44 17 32
44 18 7
44 19 28
44 20 10
44 21 3
44 22 19
44 23 6
44 24 40
44 25 27
44 26 26
44 27 5
44 28 20
44 29 21
44 30 4
44 31 40
44 32 29
44 33 4
44 34 35
44 35 17
44 36 5
44 37 22
44 38 23
44 39 15
44 40 25
44 41 36
44 42 30
44 43 32
45 0 38
45 1 37
45 2 26
45 3 20
45 4 8
45 5 34
45 6 19
45 7 32
45 8 7
45 9 35
45 10 2
45 11 8
45 12 6
45 13 4
45 14 38
45 15 1
45 16 27
45 17 6
45 18 34
45 19 21
45 20 31
45 21 4
45 22 27
45 23 17
45 24 32
45 25 8
45 26 25
45 27 25
45 28 22
45 29 6
45 30 1
45 31 2
45 32 24
45 33 27
45 34 3
45 35 1
45 36 31
45 37 6
45 38 25
45 39 30
45 40 18
45 41 15
45 42 14
45 43 15
45 44 30
46 0 13
46 1 13
46 2 12
46 3 12
46 4 3
46 5 32
46 6 18
46 7 30
46 8 4
46 9 16
46 10 13
46 11 8
46 12 5
46 13 18
46 14 27
46 15 25
46 16 28
46 17 36
46 18 26
46 19 16
46 20 29
46 21 38
46 22 40
46 23 5
46 24 4
46 25 29
46 26 23
46 27 30
46 28 8
46 29 9
46 30 6
46 31 1
46 32 27
46 33 26
46 34 21
46 35 34
46 36 30
46 37 23
46 38 11
46 39 35
46 40 13
46 41 37
46 42 24
46 43 14
46 44 4
46 45 18
47 0 2
47 1 15
47 2 38
47 3 2
47 4 19
47 5 34
47 6 5
47 7 28
47 8 3
47 9 27
47 10 27
47 11 3
47 12 14
47 13 11
47 14 30
47 15 27
47 16 30
47 17 7
47 18 21
47 19 38
47 20 40
47 21 27
47 22 10
47 23 20
47 24 20
47 25 7
47 26 19
47 27 22
47 28 4
47 29 16
47 30 26
47 31 10
47 32 17
47 33 3
47 34 10
47 35 24
47 36 22
47 37 38
47 38 21
47 39 25
47 40 12
47 41 20
47 42 17
47 43 22
47 44 40
47 45 1
47 46 3
48 0 5
48 1 2
48 2 35
48 3 10
48 4 1
48 5 29
48 6 9
48 7 13
48 8 37
48 9 20
48 10 1
48 11 34
48 12 11
48 13 4
48 14 3
48 15 31
48 16 10
48 17 24
48 18 4
48 19 38
48 20 21
48 21 39
48 22 24
48 23 7
48 24 12
48 25 5
48 26 22
48 27 10
48 28 38
48 29 15
48 30 13
48 31 28
48 32 38
48 33 20
48 34 23
48 35 5
48 36 25
48 37 8
48 38 29
48 39 9
48 40 31
48 41 17
48 42 18
48 43 1
48 44 13
48 45 8
48 46 5
48 47 3
49 0 34
49 1 16
49 2 14
49 3 11
49 4 3
49 5 36
49 6 2
49 7 34
49 8 39
49 9 7
49 10 10
49 11 18
49 12 18
49 13 40
49 14 6
49 15 28
49 16 30
49 17 2
49 18 38
49 19 11
49 20 4
49 21 16
49 22 13
49 23 26
49 24 31
49 25 7
49 26 20
49 27 38
49 28 20
49 29 5
49 30 24
49 31 20
49 32 39
49 33 24
49 34 27
49 35 8
49 36 5
49 37 16
49 38 11
49 39 25
49 40 3
49 41 11
49 42 29
49 43 23
49 44 2
49 45 1
49 46 21
49 47 16
49 48 35
